n = 10; 

m=12; 


39	79	9	26	72	29	36	48	57	95
62	77	43	98	48	14	45	25	98	30
54	67	25	77	38	98	96	20	15	36
73	21	29	3	96	51	26	44	56	31
90	63	85	36	69	67	81	18	81	72
11	49	2	76	17	32	39	9	83	69
51	24	21	57	69	51	50	51	21	19
56	65	59	4	10	12	62	43	49	54
68	37	22	41	92	67	24	87	91	31
88	51	41	71	94	99	11	97	44	77
3	48	44	93	37	82	31	59	78	33
90	63	85	36	69	67	81	18	81	72

